100
1000
199
199
199
198
197
196
196
196
196
196
195
195
195
192
192
191
190
190
190
190
190
189
188
187
187
185
185
185
183
183
182
182
181
181
180
180
179
179
179
178
177
177
176
176
176
175
175
175
175
174
174
172
172
172
171
171
171
171
170
170
170
169
169
169
168
167
166
166
166
166
165
165
164
164
164
164
164
163
163
163
162
162
160
159
159
158
158
157
157
156
156
156
156
155
155
155
153
153
151
151
